BAYES
196
2 2 2 2 2 2 2 2 2 2 2 2 2 2 2 2 2 2 2 2 2 2 2 2 2 2 2 2 2 2 2 2 2 2 2 2 2 2 2 2 2 2 2 2 2 2 2 2 2 2 2 2 2 2 2 2 2 2 2 2 2 2 2 2 2 2 2 2 2 2 2 2 2 2 2 2 2 2 2 2 2 2 2 2 2 2 2 2 2 2 2 2 2 2 2 2 2 2 2 2 2 2 2 2 2 2 2 2 2 2 2 2 2 2 2 2 2 2 2 2 2 2 2 2 2 2 2 2 2 2 2 2 2 2 2 2 2 2 2 2 2 2 2 2 2 2 2 2 2 2 2 2 2 2 2 2 2 2 2 2 2 2 2 2 2 2 2 2 2 2 2 2 2 2 2 2 2 2 2 2 2 2 2 2 2 2 2 2 2 2 2 2 2 2 2 2
196
1 0
2 0 1
2 1 2
2 2 3
2 3 4
2 4 5
2 5 6
2 6 7
2 7 8
2 8 9
2 9 10
2 10 11
2 11 12
2 12 13
2 0 14
3 1 14 15
3 2 15 16
3 3 16 17
3 4 17 18
3 5 18 19
3 6 19 20
3 7 20 21
3 8 21 22
3 9 22 23
3 10 23 24
3 11 24 25
3 12 25 26
3 13 26 27
2 14 28
3 15 28 29
3 16 29 30
3 17 30 31
3 18 31 32
3 19 32 33
3 20 33 34
3 21 34 35
3 22 35 36
3 23 36 37
3 24 37 38
3 25 38 39
3 26 39 40
3 27 40 41
2 28 42
3 29 42 43
3 30 43 44
3 31 44 45
3 32 45 46
3 33 46 47
3 34 47 48
3 35 48 49
3 36 49 50
3 37 50 51
3 38 51 52
3 39 52 53
3 40 53 54
3 41 54 55
2 42 56
3 43 56 57
3 44 57 58
3 45 58 59
3 46 59 60
3 47 60 61
3 48 61 62
3 49 62 63
3 50 63 64
3 51 64 65
3 52 65 66
3 53 66 67
3 54 67 68
3 55 68 69
2 56 70
3 57 70 71
3 58 71 72
3 59 72 73
3 60 73 74
3 61 74 75
3 62 75 76
3 63 76 77
3 64 77 78
3 65 78 79
3 66 79 80
3 67 80 81
3 68 81 82
3 69 82 83
2 70 84
3 71 84 85
3 72 85 86
3 73 86 87
3 74 87 88
3 75 88 89
3 76 89 90
3 77 90 91
3 78 91 92
3 79 92 93
3 80 93 94
3 81 94 95
3 82 95 96
3 83 96 97
2 84 98
3 85 98 99
3 86 99 100
3 87 100 101
3 88 101 102
3 89 102 103
3 90 103 104
3 91 104 105
3 92 105 106
3 93 106 107
3 94 107 108
3 95 108 109
3 96 109 110
3 97 110 111
2 98 112
3 99 112 113
3 100 113 114
3 101 114 115
3 102 115 116
3 103 116 117
3 104 117 118
3 105 118 119
3 106 119 120
3 107 120 121
3 108 121 122
3 109 122 123
3 110 123 124
3 111 124 125
2 112 126
3 113 126 127
3 114 127 128
3 115 128 129
3 116 129 130
3 117 130 131
3 118 131 132
3 119 132 133
3 120 133 134
3 121 134 135
3 122 135 136
3 123 136 137
3 124 137 138
3 125 138 139
2 126 140
3 127 140 141
3 128 141 142
3 129 142 143
3 130 143 144
3 131 144 145
3 132 145 146
3 133 146 147
3 134 147 148
3 135 148 149
3 136 149 150
3 137 150 151
3 138 151 152
3 139 152 153
2 140 154
3 141 154 155
3 142 155 156
3 143 156 157
3 144 157 158
3 145 158 159
3 146 159 160
3 147 160 161
3 148 161 162
3 149 162 163
3 150 163 164
3 151 164 165
3 152 165 166
3 153 166 167
2 154 168
3 155 168 169
3 156 169 170
3 157 170 171
3 158 171 172
3 159 172 173
3 160 173 174
3 161 174 175
3 162 175 176
3 163 176 177
3 164 177 178
3 165 178 179
3 166 179 180
3 167 180 181
2 168 182
3 169 182 183
3 170 183 184
3 171 184 185
3 172 185 186
3 173 186 187
3 174 187 188
3 175 188 189
3 176 189 190
3 177 190 191
3 178 191 192
3 179 192 193
3 180 193 194
3 181 194 195

2
0.0159006 0.984099
4
1.0 0.0 0.0 1.0
4
1.0 0.0 0.0 1.0
4
0.150397 0.849603 0.896111 0.103889
4
0.0 1.0 1.0 0.0
4
1.0 0.0 0.0 1.0
4
1.0 0.0 0.0 1.0
4
0.0 1.0 1.0 0.0
4
1.0 0.0 0.0 1.0
4
0.0 1.0 1.0 0.0
4
1.0 0.0 0.0 1.0
4
0.0 1.0 1.0 0.0
4
1.0 0.0 0.0 1.0
4
0.0 1.0 1.0 0.0
4
0.0 1.0 1.0 0.0
8
1.0 0.0 0.0 1.0 0.0 1.0 0.0 1.0
8
0.0 1.0 1.0 0.0 0.0 1.0 1.0 0.0
8
0.600686 0.399314 0.996609 0.00339064 0.203224 0.796776 0.38912 0.61088
8
1.0 0.0 0.0 1.0 1.0 0.0 1.0 0.0
8
1.0 0.0 1.0 0.0 1.0 0.0 0.0 1.0
8
1.0 0.0 0.0 1.0 1.0 0.0 0.0 1.0
8
0.0 1.0 0.0 1.0 0.0 1.0 1.0 0.0
8
1.0 0.0 0.0 1.0 1.0 0.0 0.0 1.0
8
0.0 1.0 1.0 0.0 1.0 0.0 1.0 0.0
8
0.0 1.0 0.0 1.0 0.0 1.0 1.0 0.0
8
1.0 0.0 0.0 1.0 1.0 0.0 1.0 0.0
8
1.0 0.0 1.0 0.0 1.0 0.0 0.0 1.0
8
1.0 0.0 0.0 1.0 1.0 0.0 0.0 1.0
4
1.0 0.0 0.0 1.0
8
1.0 0.0 0.0 1.0 1.0 0.0 1.0 0.0
8
0.0 1.0 0.0 1.0 0.0 1.0 1.0 0.0
8
0.0 1.0 1.0 0.0 1.0 0.0 1.0 0.0
8
0.0 1.0 1.0 0.0 1.0 0.0 1.0 0.0
8
1.0 0.0 1.0 0.0 1.0 0.0 0.0 1.0
8
0.497509 0.502491 0.356388 0.643612 0.584519 0.415481 0.211744 0.788256
8
0.0 1.0 0.0 1.0 1.0 0.0 0.0 1.0
8
1.0 0.0 1.0 0.0 0.0 1.0 1.0 0.0
8
0.842828 0.157172 0.576592 0.423408 0.349064 0.650936 0.995436 0.00456354
8
1.0 0.0 1.0 0.0 1.0 0.0 0.0 1.0
8
0.0 1.0 1.0 0.0 1.0 0.0 1.0 0.0
8
0.0 1.0 1.0 0.0 1.0 0.0 1.0 0.0
8
0.879482 0.120518 0.268921 0.731079 0.431659 0.568341 0.746209 0.253791
4
0.0 1.0 1.0 0.0
8
0.183491 0.816509 0.176408 0.823592 0.437229 0.562771 0.00156246 0.998438
8
1.0 0.0 1.0 0.0 0.0 1.0 1.0 0.0
8
0.338828 0.661172 0.14971 0.85029 0.586881 0.413119 0.0159591 0.984041
8
0.0 1.0 1.0 0.0 0.0 1.0 1.0 0.0
8
0.342714 0.657286 0.445443 0.554557 0.613054 0.386946 0.222196 0.777804
8
1.0 0.0 1.0 0.0 0.0 1.0 1.0 0.0
8
0.581501 0.418499 0.00518988 0.99481 0.342422 0.657578 0.583063 0.416937
8
0.0 1.0 1.0 0.0 0.0 1.0 0.0 1.0
8
0.0 1.0 1.0 0.0 0.0 1.0 0.0 1.0
8
0.0720123 0.927988 0.558295 0.441705 0.0717153 0.928285 0.726199 0.273801
8
0.0 1.0 0.0 1.0 1.0 0.0 1.0 0.0
8
0.0 1.0 0.0 1.0 0.0 1.0 1.0 0.0
8
0.0 1.0 0.0 1.0 0.0 1.0 1.0 0.0
4
1.0 0.0 0.0 1.0
8
0.668972 0.331028 0.40067 0.59933 0.43423 0.56577 0.269228 0.730772
8
0.0 1.0 1.0 0.0 0.0 1.0 1.0 0.0
8
1.0 0.0 0.0 1.0 1.0 0.0 0.0 1.0
8
1.0 0.0 0.0 1.0 0.0 1.0 0.0 1.0
8
0.0 1.0 1.0 0.0 1.0 0.0 0.0 1.0
8
1.0 0.0 0.0 1.0 0.0 1.0 1.0 0.0
8
1.0 0.0 0.0 1.0 0.0 1.0 1.0 0.0
8
0.0 1.0 1.0 0.0 0.0 1.0 1.0 0.0
8
0.0 1.0 0.0 1.0 1.0 0.0 1.0 0.0
8
1.0 0.0 0.0 1.0 0.0 1.0 1.0 0.0
8
1.0 0.0 0.0 1.0 1.0 0.0 0.0 1.0
8
0.462614 0.537386 0.799471 0.200529 0.638951 0.361049 0.571393 0.428607
8
1.0 0.0 0.0 1.0 0.0 1.0 1.0 0.0
4
0.889456 0.110544 0.301028 0.698972
8
1.0 0.0 0.0 1.0 1.0 0.0 1.0 0.0
8
0.0 1.0 0.0 1.0 1.0 0.0 1.0 0.0
8
1.0 0.0 1.0 0.0 0.0 1.0 0.0 1.0
8
0.0 1.0 1.0 0.0 1.0 0.0 0.0 1.0
8
0.0 1.0 1.0 0.0 0.0 1.0 1.0 0.0
8
0.0 1.0 0.0 1.0 0.0 1.0 1.0 0.0
8
0.0 1.0 0.0 1.0 0.0 1.0 1.0 0.0
8
1.0 0.0 1.0 0.0 1.0 0.0 0.0 1.0
8
1.0 0.0 1.0 0.0 0.0 1.0 0.0 1.0
8
1.0 0.0 0.0 1.0 1.0 0.0 0.0 1.0
8
0.62801 0.37199 0.0276759 0.972324 0.712726 0.287274 0.295006 0.704994
8
0.0 1.0 1.0 0.0 1.0 0.0 0.0 1.0
8
0.0 1.0 1.0 0.0 1.0 0.0 1.0 0.0
4
0.0 1.0 1.0 0.0
8
0.508353 0.491647 0.0217397 0.97826 0.335331 0.664669 0.482034 0.517966
8
1.0 0.0 1.0 0.0 0.0 1.0 0.0 1.0
8
1.0 0.0 0.0 1.0 0.0 1.0 1.0 0.0
8
1.0 0.0 1.0 0.0 0.0 1.0 0.0 1.0
8
1.0 0.0 0.0 1.0 1.0 0.0 0.0 1.0
8
0.0 1.0 1.0 0.0 0.0 1.0 0.0 1.0
8
0.0 1.0 0.0 1.0 0.0 1.0 1.0 0.0
8
0.0 1.0 0.0 1.0 1.0 0.0 0.0 1.0
8
1.0 0.0 1.0 0.0 0.0 1.0 1.0 0.0
8
0.0 1.0 0.0 1.0 1.0 0.0 0.0 1.0
8
1.0 0.0 1.0 0.0 0.0 1.0 1.0 0.0
8
0.0 1.0 0.0 1.0 1.0 0.0 0.0 1.0
8
1.0 0.0 1.0 0.0 0.0 1.0 1.0 0.0
4
0.0 1.0 1.0 0.0
8
1.0 0.0 1.0 0.0 1.0 0.0 0.0 1.0
8
0.247396 0.752604 0.580669 0.419331 0.589915 0.410085 0.425356 0.574644
8
1.0 0.0 0.0 1.0 1.0 0.0 0.0 1.0
8
0.0 1.0 0.0 1.0 1.0 0.0 0.0 1.0
8
0.589678 0.410322 0.137051 0.862949 0.847415 0.152585 0.653435 0.346565
8
1.0 0.0 0.0 1.0 1.0 0.0 0.0 1.0
8
1.0 0.0 0.0 1.0 1.0 0.0 1.0 0.0
8
1.0 0.0 1.0 0.0 0.0 1.0 0.0 1.0
8
0.895045 0.104955 0.572835 0.427165 0.916501 0.0834993 0.0186699 0.98133
8
1.0 0.0 1.0 0.0 1.0 0.0 0.0 1.0
8
1.0 0.0 0.0 1.0 0.0 1.0 0.0 1.0
8
0.840778 0.159222 0.310193 0.689807 0.491327 0.508673 0.0397516 0.960248
8
1.0 0.0 1.0 0.0 0.0 1.0 1.0 0.0
4
1.0 0.0 0.0 1.0
8
0.0 1.0 0.0 1.0 1.0 0.0 1.0 0.0
8
0.371839 0.628161 0.323797 0.676203 0.294038 0.705962 0.564399 0.435601
8
0.492035 0.507965 0.27744 0.72256 0.0932302 0.90677 0.27971 0.72029
8
0.0 1.0 1.0 0.0 0.0 1.0 1.0 0.0
8
0.0 1.0 1.0 0.0 0.0 1.0 1.0 0.0
8
1.0 0.0 0.0 1.0 0.0 1.0 1.0 0.0
8
1.0 0.0 0.0 1.0 0.0 1.0 1.0 0.0
8
0.106389 0.893611 0.757718 0.242282 0.180799 0.819201 0.400427 0.599573
8
0.0 1.0 0.0 1.0 0.0 1.0 1.0 0.0
8
1.0 0.0 0.0 1.0 1.0 0.0 0.0 1.0
8
0.0 1.0 1.0 0.0 1.0 0.0 1.0 0.0
8
0.160475 0.839525 0.732926 0.267074 0.636681 0.363319 0.53856 0.46144
8
0.205405 0.794595 0.822547 0.177453 0.151514 0.848486 0.0624075 0.937592
4
0.909232 0.0907679 0.243207 0.756793
8
1.0 0.0 1.0 0.0 0.0 1.0 1.0 0.0
8
1.0 0.0 0.0 1.0 0.0 1.0 1.0 0.0
8
1.0 0.0 0.0 1.0 1.0 0.0 0.0 1.0
8
0.213503 0.786497 0.927391 0.0726087 0.580916 0.419084 0.373978 0.626022
8
1.0 0.0 0.0 1.0 0.0 1.0 0.0 1.0
8
0.0 1.0 1.0 0.0 1.0 0.0 0.0 1.0
8
1.0 0.0 1.0 0.0 0.0 1.0 1.0 0.0
8
0.0 1.0 1.0 0.0 1.0 0.0 1.0 0.0
8
0.0 1.0 0.0 1.0 0.0 1.0 1.0 0.0
8
1.0 0.0 1.0 0.0 1.0 0.0 0.0 1.0
8
0.23381 0.76619 0.306265 0.693735 0.322529 0.677471 0.656812 0.343188
8
0.0 1.0 0.0 1.0 0.0 1.0 1.0 0.0
8
0.698762 0.301238 0.104744 0.895256 0.7841 0.2159 0.913975 0.0860252
4
1.0 0.0 0.0 1.0
8
0.0 1.0 0.0 1.0 1.0 0.0 1.0 0.0
8
1.0 0.0 1.0 0.0 0.0 1.0 1.0 0.0
8
1.0 0.0 0.0 1.0 1.0 0.0 1.0 0.0
8
1.0 0.0 1.0 0.0 0.0 1.0 0.0 1.0
8
0.54152 0.45848 0.448355 0.551645 0.167207 0.832793 0.412358 0.587642
8
1.0 0.0 1.0 0.0 1.0 0.0 0.0 1.0
8
1.0 0.0 0.0 1.0 0.0 1.0 1.0 0.0
8
0.805892 0.194108 0.0608315 0.939169 0.843831 0.156169 0.231046 0.768954
8
1.0 0.0 1.0 0.0 1.0 0.0 0.0 1.0
8
1.0 0.0 0.0 1.0 0.0 1.0 0.0 1.0
8
0.0 1.0 0.0 1.0 1.0 0.0 1.0 0.0
8
0.0 1.0 1.0 0.0 0.0 1.0 0.0 1.0
8
1.0 0.0 1.0 0.0 1.0 0.0 0.0 1.0
4
0.0 1.0 1.0 0.0
8
0.868355 0.131645 0.193766 0.806234 0.544075 0.455925 0.713823 0.286177
8
0.0 1.0 0.0 1.0 1.0 0.0 1.0 0.0
8
0.867628 0.132372 0.614258 0.385742 0.582561 0.417439 0.9791 0.0208996
8
1.0 0.0 0.0 1.0 1.0 0.0 0.0 1.0
8
0.871257 0.128743 0.33928 0.66072 0.284693 0.715307 0.338481 0.661519
8
1.0 0.0 1.0 0.0 0.0 1.0 0.0 1.0
8
1.0 0.0 0.0 1.0 0.0 1.0 1.0 0.0
8
1.0 0.0 1.0 0.0 0.0 1.0 0.0 1.0
8
0.0 1.0 1.0 0.0 0.0 1.0 0.0 1.0
8
0.0 1.0 1.0 0.0 0.0 1.0 0.0 1.0
8
0.0 1.0 1.0 0.0 0.0 1.0 1.0 0.0
8
0.94292 0.0570798 0.00230012 0.9977 0.391373 0.608627 0.400951 0.599049
8
1.0 0.0 0.0 1.0 0.0 1.0 1.0 0.0
4
0.255375 0.744625 0.794132 0.205868
8
0.0 1.0 1.0 0.0 1.0 0.0 1.0 0.0
8
1.0 0.0 1.0 0.0 0.0 1.0 1.0 0.0
8
0.0 1.0 0.0 1.0 1.0 0.0 0.0 1.0
8
0.0 1.0 1.0 0.0 1.0 0.0 0.0 1.0
8
0.679252 0.320748 0.222654 0.777346 0.13371 0.86629 0.410777 0.589223
8
1.0 0.0 1.0 0.0 1.0 0.0 0.0 1.0
8
1.0 0.0 0.0 1.0 0.0 1.0 0.0 1.0
8
0.668605 0.331395 0.757973 0.242027 0.271346 0.728654 0.376999 0.623001
8
0.0 1.0 0.0 1.0 1.0 0.0 0.0 1.0
8
1.0 0.0 0.0 1.0 0.0 1.0 1.0 0.0
8
0.608436 0.391564 0.434327 0.565673 0.023823 0.976177 0.0192126 0.980787
8
0.0 1.0 0.0 1.0 0.0 1.0 1.0 0.0
8
0.0 1.0 0.0 1.0 0.0 1.0 1.0 0.0
4
0.91555 0.0844499 0.126651 0.873349
8
1.0 0.0 0.0 1.0 1.0 0.0 1.0 0.0
8
0.0 1.0 0.0 1.0 0.0 1.0 1.0 0.0
8
1.0 0.0 0.0 1.0 0.0 1.0 1.0 0.0
8
0.463558 0.536442 0.849781 0.150219 0.979178 0.0208219 0.23946 0.76054
8
1.0 0.0 0.0 1.0 1.0 0.0 1.0 0.0
8
0.0 1.0 1.0 0.0 0.0 1.0 1.0 0.0
8
0.602038 0.397962 0.631194 0.368806 0.814135 0.185865 0.167589 0.832411
8
0.0 1.0 1.0 0.0 1.0 0.0 0.0 1.0
8
1.0 0.0 1.0 0.0 0.0 1.0 1.0 0.0
8
1.0 0.0 1.0 0.0 0.0 1.0 1.0 0.0
8
0.0 1.0 0.0 1.0 0.0 1.0 1.0 0.0
8
1.0 0.0 1.0 0.0 0.0 1.0 1.0 0.0
8
0.0220752 0.977925 0.68569 0.31431 0.47748 0.52252 0.83621 0.16379